100 53248

 630 522
55 977
749 126
318 17
1 771
512 808
47 121
277 266
707 18
63 294
840 774
4 518
247 349
741 372
317 2
102 300
361 647
271 975
843 848
314 24
789 899
892 784
434 781
910 458
378 399
965 303
90 66
688 229
494 247
388 485
633 748
704 474
5 58
167 958
714 943
667 786
967 992
762 545
951 963
703 76
299 366
106 226
782 196
645 141
49 623
361 782
957 579
501 147
433 812
458 636
209 389
369 675
370 260
53 346
768 918
417 291
823 470
851 891
212 708
658 63
473 148
881 8
216 631
678 448
608 135
296 958
137 530
652 242
739 501
316 680
645 77
396 275
714 807
200 460
891 547
288 433
368 44
59 166
112 446
516 210
268 50
836 844
15 982
380 794
338 854
20 242
125 961
414 197
493 952
405 995
531 712
596 982
10 570
465 260
964 437
520 594
678 74
312 623
774 982
773 191
